#######################################
### Exact MIP solver for the HHCRSP ###
#######################################
-- Instance file: new-instances/HHCRSP_400_80_36_1.2_C_RC.txt
-- Max threads: 4
-- Time limit: 999999 seconds
-- Use initial solution: No
Trivial flow violations prevented generating 2737024 variables.
Version identifier: 20.1.0.0 | 2020-11-10 | 9bedb6d68
CPXPARAM_Threads                                 4
CPXPARAM_Emphasis_Memory                         1
CPXPARAM_TimeLimit                               999999
Tried aggregator 1 time.
Presolve has eliminated 78456 rows and 16699 columns...
LP Presolve eliminated 78456 rows and 16699 columns.
Reduced LP has 2701822 rows, 2564381 columns, and 73838518 nonzeros.
Presolve time = 74.39 sec. (15740.79 ticks)
Compression time = 19.93 sec. (5.11 ticks)
Compression reduced 1075.54 MB A matrix to 324.21 MB
Symmetry aggregator did 4532192 additional substitutions.
Initializing dual steep norms . . .
Elapsed time = 95.65 sec. (16395.18 ticks, 1 iterations)

Iteration log . . .
Iteration:     1   Dual objective     =             0.000000
Iteration:  1808   Dual objective     =           454.000000

Dual crossover.
  Dual:  Fixing 3239 variables.
     3238 DMoves:  Infeasibility  4.32026637e-12  Objective  4.55000000e+02
        0 DMoves:  Infeasibility  1.87166949e-12  Objective  4.55000000e+02
  Dual:  Pushed 81, exchanged 3158.
  Primal:  Fixing 1874 variables.
     1873 PMoves:  Infeasibility  0.00000000e+00  Objective  4.55000000e+02
        0 PMoves:  Infeasibility  0.00000000e+00  Objective  4.55000000e+02
  Primal:  Pushed 1685, exchanged 189.

Solution status from MIP model:
-- Processing time: 132.097 sec.
-- Memory used: 1705.17 MB
-- Best bound: inf
-- Obj value: 455
-- Gap: inf%
-- Total distance: 1365
-- Total tardiness: 0
-- Largest tardiness: 0
